NAME: tsp_237
COMMENT: Random TSP instance
TYPE: TSP
DIMENSION: 50
EDGE_WEIGHT_TYPE: EUC_2D
NODE_COORD_SECTION
1 164 901
2 892 216
3 775 434
4 811 13
5 10 719
6 322 891
7 679 845
8 27 566
9 476 670
10 245 540
11 145 863
12 161 661
13 750 488
14 832 625
15 146 435
16 543 509
17 533 749
18 865 561
19 208 103
20 512 562
21 316 452
22 851 701
23 153 611
24 261 674
25 487 652
26 912 248
27 315 180
28 673 2
29 89 51
30 110 690
31 81 710
32 740 742
33 629 387
34 881 578
35 833 735
36 958 433
37 294 369
38 182 274
39 372 534
40 557 45
41 173 848
42 986 679
43 751 180
44 98 538
45 794 796
46 502 792
47 851 51
48 160 197
49 933 684
50 144 631
